; Start decls (1)
(declare-fun symbolic_0_float_ackermann!0 () (_ BitVec 32))
; End decls
; Start constraints (26)
(assert (fp.geq ((_ to_fp 11 53)
          roundNearestTiesToEven
          ((_ to_fp 8 24) symbolic_0_float_ackermann!0))
        ((_ to_fp 11 53) #x3ddb7cdfd9d7bdbb)))
(assert (fp.leq ((_ to_fp 8 24) symbolic_0_float_ackermann!0)
        ((_ to_fp 8 24) #x501502f9)))
(assert (or (fp.isNaN ((_ to_fp 8 24) symbolic_0_float_ackermann!0))
    (fp.lt ((_ to_fp 8 24) symbolic_0_float_ackermann!0)
           ((_ to_fp 8 24) #x3f800000))))
(assert (fp.lt ((_ to_fp 8 24) symbolic_0_float_ackermann!0)
       ((_ to_fp 8 24) #x3f000000)))
(assert (fp.gt ((_ to_fp 8 24) #x3e800000)
       ((_ to_fp 8 24) symbolic_0_float_ackermann!0)))
(assert (fp.gt ((_ to_fp 8 24) #x3e000000)
       ((_ to_fp 8 24) symbolic_0_float_ackermann!0)))
(assert (fp.gt ((_ to_fp 8 24) #x3d800000)
       ((_ to_fp 8 24) symbolic_0_float_ackermann!0)))
(assert (fp.gt ((_ to_fp 8 24) #x3d000000)
       ((_ to_fp 8 24) symbolic_0_float_ackermann!0)))
(assert (fp.gt ((_ to_fp 8 24) #x3c800000)
       ((_ to_fp 8 24) symbolic_0_float_ackermann!0)))
(assert (fp.gt ((_ to_fp 8 24) #x3c000000)
       ((_ to_fp 8 24) symbolic_0_float_ackermann!0)))
(assert (fp.gt ((_ to_fp 8 24) #x3b800000)
       ((_ to_fp 8 24) symbolic_0_float_ackermann!0)))
(assert (fp.gt ((_ to_fp 8 24) #x3b000000)
       ((_ to_fp 8 24) symbolic_0_float_ackermann!0)))
(assert (fp.gt ((_ to_fp 8 24) #x3a800000)
       ((_ to_fp 8 24) symbolic_0_float_ackermann!0)))
(assert (fp.gt ((_ to_fp 8 24) #x3a000000)
       ((_ to_fp 8 24) symbolic_0_float_ackermann!0)))
(assert (fp.gt ((_ to_fp 8 24) #x39800000)
       ((_ to_fp 8 24) symbolic_0_float_ackermann!0)))
(assert (fp.gt ((_ to_fp 8 24) #x39000000)
       ((_ to_fp 8 24) symbolic_0_float_ackermann!0)))
(assert (fp.gt ((_ to_fp 8 24) #x38800000)
       ((_ to_fp 8 24) symbolic_0_float_ackermann!0)))
(assert (fp.gt ((_ to_fp 8 24) #x38000000)
       ((_ to_fp 8 24) symbolic_0_float_ackermann!0)))
(assert (fp.gt ((_ to_fp 8 24) #x37800000)
       ((_ to_fp 8 24) symbolic_0_float_ackermann!0)))
(assert (fp.gt ((_ to_fp 8 24) #x37000000)
       ((_ to_fp 8 24) symbolic_0_float_ackermann!0)))
(assert (fp.gt ((_ to_fp 8 24) #x36800000)
       ((_ to_fp 8 24) symbolic_0_float_ackermann!0)))
(assert (fp.gt ((_ to_fp 8 24) #x36000000)
       ((_ to_fp 8 24) symbolic_0_float_ackermann!0)))
(assert (fp.gt ((_ to_fp 8 24) #x35800000)
       ((_ to_fp 8 24) symbolic_0_float_ackermann!0)))
(assert (fp.gt ((_ to_fp 8 24) #x35000000)
       ((_ to_fp 8 24) symbolic_0_float_ackermann!0)))
(assert (fp.gt ((_ to_fp 8 24) #x34800000)
       ((_ to_fp 8 24) symbolic_0_float_ackermann!0)))
(assert (not (fp.gt ((_ to_fp 8 24) #x34000000)
            ((_ to_fp 8 24) symbolic_0_float_ackermann!0))))
; End constraints
(check-sat)
(exit)
